
Gurobi 10.0.0 (linux64) logging started Sat Dec 17 21:30:16 2022

Set parameter LogFile to value "../results/k04_n200_d070/k04_n200_d091_ising2_5_200_6666_BQO_log.txt"
Gurobi Optimizer version 10.0.0 build v10.0.0rc2 (linux64)

CPU model: Intel(R) Xeon(R) CPU E5-2630 v4 @ 2.20GHz, instruction set [SSE2|AVX|AVX2]
Thread count: 20 physical cores, 40 logical processors, using up to 10 threads

Optimize a model with 200 rows, 800 columns and 800 nonzeros
Model fingerprint: 0xb5cd5b21
Model has 72984 quadratic objective terms
Variable types: 0 continuous, 800 integer (800 binary)
Coefficient statistics:
  Matrix range     [1e+00, 1e+00]
  Objective range  [0e+00, 0e+00]
  QObjective range [2e+00, 5e+05]
  Bounds range     [1e+00, 1e+00]
  RHS range        [1e+00, 1e+00]
Found heuristic solution: objective -0.0000000
Presolve removed 1 rows and 4 columns
Presolve time: 1.11s
Presolved: 199 rows, 796 columns, 796 nonzeros
Presolved model has 72264 quadratic objective terms
Variable types: 0 continuous, 796 integer (796 binary)

Explored 0 nodes (0 simplex iterations) in 1.12 seconds (0.87 work units)
Thread count was 10 (of 40 available processors)

Solution count 1: -0 

Time limit reached
Best objective -0.000000000000e+00, best bound 2.853489700000e+07, gap -
